40	100	100	100
4	31	24
17	32	27
12	28	27
32	22	4
11	33	26
7	33	5
4	33	21
5	5	26
25	7	28
18	13	14
5	5	28
19	11	11
17	4	13
13	27	11
15	33	26
15	27	30
28	17	28
27	24	8
20	23	10
1	17	15
15	6	32
30	20	34
12	9	16
20	17	29
6	8	27
12	14	20
34	12	1
23	34	13
23	9	24
16	20	13
14	26	2
25	27	29
16	25	31
2	14	17
11	18	30
5	18	6
31	23	28
26	19	4
12	28	20
33	5	12
